30
5
3005002
0
0
52 91 35 8 15 
1
0
32 63 31 71 93 
2
0
50 77 38 52 80 
3
0
56 95 62 50 9 
4
0
61 53 52 50 31 
5
0
79 51 92 28 30 
6
0
17 17 77 54 26 
7
0
83 3 53 16 45 
8
0
6 33 47 94 57 
9
0
3 44 12 65 94 
10
0
51 35 82 52 71 
11
0
24 57 92 63 65 
12
0
53 95 37 75 16 
13
0
26 79 24 11 73 
14
0
32 62 97 84 95 
15
0
14 23 63 85 41 
16
0
24 59 64 81 80 
17
0
7 69 47 60 97 
18
0
79 99 88 84 97 
19
0
6 15 21 75 55 
20
0
19 34 64 99 55 
21
0
38 91 21 91 43 
22
0
98 65 47 57 26 
23
0
53 60 56 91 74 
24
0
20 98 37 37 78 
25
0
4 47 23 72 73 
26
0
68 71 14 72 69 
27
0
79 93 51 73 66 
28
0
90 17 92 88 36 
29
0
14 92 28 19 20 
